
  32    1
  10

   0   0   7 2 3 4 5 6 8 9 
   4   2   6 18 17 13 12 11 7 
  10   5   6 19 18 17 16 10 7 
   5   5   6 19 18 16 12 11 10 
   1   5   5 18 17 13 10 7 
   1   5   7 25 19 18 17 16 12 11 
   5   8   6 29 24 23 22 15 14 
   7   8   2 24 10 
   1   4   5 29 24 22 15 14 
   1  10   6 30 29 27 23 22 14 
   2  10   7 30 29 28 27 23 22 20 
   8   5   4 29 23 22 15 
   6  10   4 28 22 20 16 
   3   3   4 31 28 25 20 
   7   3   4 30 28 27 21 
   7   8   4 30 29 26 24 
   1   4   4 29 27 22 21 
   5   6   3 28 27 22 
   5   6   2 27 26 
   7   5   1 21 
   5   4   1 26 
   6   8   1 26 
   3   4   1 31 
   2   5   1 27 
   4   7   1 26 
   8   7   1 32
   1   7   1 32
   5   9   1 32
  10  10   1 32
   9   3   1 32
   4   4   1 32
   0   0   0 
